max: 2.0 x1 + 1 x2 - 2 x3  + 2 x4 - 2 x6  + 1 x7 - 2 x8  + 11 x9 - 2 x10  - 4 x11  + 1 x12 - 3 x13  + 1 x15 + 1 x16 + 7 x17 + 1 x18 - 1 x19  - 2 x20  - 6 x21  + 2 x22 + 4 x24 + 7 x25 + 2 x26 + 1 x27 + 1 x28 + 2 x29 - 3 x30  + 1 x31 - 3 x32  + 6 x33 + 7 x34 - 4 x35  - 4 x36  - 2 x37  - 4 x38  - 7 x39  + 3 x40 + 2 x41 - 3 x42  - 2 x43  - 4 x44  - 1 x45  + 4 x46 - 4 x47  + 13 x48 - 8 x49  + 1 x50 - 3 x52  - 3 x54  - 4 x55  - 3 x56  + 2 x57 - 2 x58  - 1 x59  + 3 x60 - 4 x61  - 1 x62  - 2 x63  + 3 x64 - 10 x65  - 4 x67  - 1 x70  - 1 x71  + 4 x72 - 2 x73  - 1 x74  + 3 x75 + 3 x76 - 2 x77  + 7 x78 - 4 x79  + 2 x80 - 1 x81  + 5 x82 - 1 x85  - 5 x86  + 2 x87 + 4 x88 + 6 x89 + 1 x90 - 1 x92  + 4 x93 - 2 x94  - 1 x95  - 1 x96  - 1 x97  - 1 x98  + 7 x99 - 1 x100;
x19 + x22 + x78 >= 1;
1 - x64 + 1 - x12 + x18 >= 1;
1 - x22 + x8 + x21 >= 1;
1 - x71 + 1 - x20 + x98 >= 1;
1 - x81 + 1 - x4 + x28 >= 1;
1 - x41 + 1 - x18 + x3 >= 1;
x25 + x71 + x83 >= 1;
1 - x63 + 1 - x53 + 1 - x44 >= 1;
1 - x38 + x42 + x83 >= 1;
1 - x28 + x25 + x89 >= 1;
1 - x67 + x12 + x74 >= 1;
1 - x86 + x87 + x90 >= 1;
1 - x91 + x4 + x75 >= 1;
1 - x87 + 1 - x12 + x32 >= 1;
1 - x96 + 1 - x35 + x84 >= 1;
1 - x98 + 1 - x68 + x25 >= 1;
1 - x99 + 1 - x46 + 1 - x24 >= 1;
1 - x11 + x64 + x95 >= 1;
1 - x73 + x30 + x50 >= 1;
1 - x22 + 1 - x14 + 1 - x11 >= 1;
x25 + x48 + x89 >= 1;
x25 + x51 + x82 >= 1;
1 - x100 + 1 - x36 + x23 >= 1;
1 - x37 + 1 - x2 + x49 >= 1;
1 - x70 + 1 - x63 + x57 >= 1;
x48 + x81 + x84 >= 1;
x35 + x64 + x84 >= 1;
1 - x70 + 1 - x56 + 1 - x11 >= 1;
1 - x13 + x68 + x75 >= 1;
1 - x96 + 1 - x28 + x52 >= 1;
1 - x63 + 1 - x27 + x45 >= 1;
1 - x50 + 1 - x39 + x27 >= 1;
1 - x96 + 1 - x19 + x70 >= 1;
1 - x65 + 1 - x54 + x19 >= 1;
1 - x43 + x22 + x41 >= 1;
x47 + x53 + x74 >= 1;
1 - x35 + x41 + x81 >= 1;
1 - x90 + 1 - x71 + x32 >= 1;
1 - x83 + 1 - x10 + x4 >= 1;
1 - x3 + x1 + x66 >= 1;
1 - x26 + x4 + x24 >= 1;
1 - x46 + x20 + x81 >= 1;
1 - x91 + 1 - x40 + x90 >= 1;
1 - x92 + x3 + x17 >= 1;
1 - x90 + x6 + x54 >= 1;
1 - x49 + 1 - x21 + x35 >= 1;
1 - x73 + 1 - x44 + 1 - x8 >= 1;
1 - x98 + x48 + x78 >= 1;
1 - x55 + x46 + x100 >= 1;
1 - x86 + x13 + x89 >= 1;
1 - x26 + x29 + x68 >= 1;
1 - x94 + 1 - x7 + x5 >= 1;
1 - x71 + 1 - x59 + 1 - x44 >= 1;
1 - x65 + 1 - x28 + x51 >= 1;
1 - x87 + 1 - x54 + x17 >= 1;
1 - x64 + 1 - x33 + x7 >= 1;
1 - x85 + 1 - x3 + x56 >= 1;
1 - x30 + x43 + x67 >= 1;
1 - x99 + x52 + x85 >= 1;
1 - x70 + 1 - x67 + x48 >= 1;
1 - x53 + x29 + x90 >= 1;
1 - x93 + 1 - x44 + x19 >= 1;
1 - x57 + 1 - x20 + x22 >= 1;
1 - x89 + x87 + x94 >= 1;
1 - x96 + x54 + x99 >= 1;
1 - x97 + 1 - x68 + x89 >= 1;
x9 + x26 + x28 >= 1;
1 - x8 + x41 + x50 >= 1;
1 - x44 + x55 + x99 >= 1;
1 - x94 + x69 + x90 >= 1;
x1 + x15 + x37 >= 1;
1 - x43 + x14 + x18 >= 1;
x64 + x69 + x93 >= 1;
1 - x55 + x4 + x87 >= 1;
x24 + x29 + x72 >= 1;
1 - x51 + 1 - x42 + x87 >= 1;
1 - x1 + x2 + x5 >= 1;
1 - x61 + 1 - x30 + x10 >= 1;
1 - x68 + 1 - x58 + 1 - x49 >= 1;
1 - x38 + x1 + x100 >= 1;
1 - x67 + 1 - x64 + x69 >= 1;
1 - x69 + 1 - x52 + x70 >= 1;
1 - x47 + x7 + x61 >= 1;
1 - x89 + x57 + x71 >= 1;
1 - x92 + 1 - x49 + x17 >= 1;
1 - x32 + 1 - x31 + x14 >= 1;
1 - x92 + x33 + x64 >= 1;
1 - x96 + 1 - x93 + 1 - x37 >= 1;
1 - x51 + 1 - x45 + x75 >= 1;
1 - x90 + x85 + x93 >= 1;
1 - x90 + 1 - x43 + x5 >= 1;
1 - x49 + x16 + x58 >= 1;
1 - x93 + 1 - x12 + x78 >= 1;
1 - x39 + x37 + x71 >= 1;
x14 + x76 + x89 >= 1;
1 - x62 + 1 - x22 + x60 >= 1;
1 - x37 + x72 + x84 >= 1;
1 - x83 + 1 - x14 + x98 >= 1;
1 - x83 + 1 - x61 + 1 - x17 >= 1;
1 - x76 + 1 - x2 + x12 >= 1;
1 - x13 + 1 - x8 + x77 >= 1;
1 - x94 + 1 - x66 + 1 - x41 >= 1;
1 - x79 + 1 - x60 + x33 >= 1;
1 - x71 + 1 - x67 + 1 - x54 >= 1;
1 - x87 + 1 - x67 + 1 - x62 >= 1;
1 - x65 + x54 + x66 >= 1;
1 - x47 + x26 + x76 >= 1;
1 - x96 + 1 - x81 + x30 >= 1;
1 - x21 + 1 - x3 + x43 >= 1;
1 - x16 + x33 + x77 >= 1;
1 - x55 + x62 + x96 >= 1;
1 - x90 + x7 + x12 >= 1;
1 - x94 + 1 - x16 + x40 >= 1;
1 - x27 + x9 + x54 >= 1;
1 - x43 + 1 - x30 + x54 >= 1;
1 - x83 + 1 - x56 + x1 >= 1;
x8 + x34 + x94 >= 1;
1 - x77 + 1 - x67 + 1 - x36 >= 1;
1 - x41 + 1 - x14 + x9 >= 1;
1 - x97 + 1 - x35 + 1 - x15 >= 1;
1 - x13 + x54 + x73 >= 1;
1 - x50 + x31 + x93 >= 1;
1 - x6 + 1 - x5 + x39 >= 1;
1 - x81 + 1 - x34 + x96 >= 1;
1 - x61 + 1 - x10 + x35 >= 1;
1 - x80 + 1 - x21 + x14 >= 1;
x25 + x46 + x88 >= 1;
1 - x64 + 1 - x46 + x20 >= 1;
x38 + x46 + x50 >= 1;
1 - x33 + 1 - x4 + x50 >= 1;
1 - x75 + 1 - x74 + 1 - x36 >= 1;
1 - x51 + x24 + x80 >= 1;
x11 + x69 + x85 >= 1;
1 - x42 + x73 + x87 >= 1;
1 - x33 + 1 - x28 + x37 >= 1;
1 - x67 + x79 + x94 >= 1;
1 - x85 + x22 + x89 >= 1;
1 - x7 + x13 + x90 >= 1;
1 - x13 + x20 + x62 >= 1;
1 - x77 + 1 - x61 + 1 - x29 >= 1;
1 - x48 + 1 - x44 + x55 >= 1;
1 - x86 + x62 + x100 >= 1;
1 - x32 + 1 - x7 + x2 >= 1;
1 - x95 + 1 - x62 + 1 - x13 >= 1;
1 - x39 + 1 - x22 + 1 - x6 >= 1;
1 - x38 + 1 - x32 + x41 >= 1;
x18 + x43 + x54 >= 1;
1 - x57 + x18 + x25 >= 1;
1 - x94 + 1 - x39 + 1 - x1 >= 1;
1 - x15 + x12 + x81 >= 1;
1 - x79 + 1 - x43 + 1 - x35 >= 1;
1 - x36 + x1 + x8 >= 1;
1 - x79 + 1 - x36 + x69 >= 1;
1 - x94 + 1 - x67 + 1 - x4 >= 1;
1 - x61 + 1 - x49 + x66 >= 1;
x9 + x57 + x74 >= 1;
1 - x41 + 1 - x36 + 1 - x35 >= 1;
1 - x93 + 1 - x56 + x36 >= 1;
1 - x20 + 1 - x5 + x50 >= 1;
1 - x66 + x24 + x48 >= 1;
1 - x35 + x5 + x96 >= 1;
1 - x97 + x41 + x75 >= 1;
1 - x89 + 1 - x26 + x83 >= 1;
1 - x98 + 1 - x94 + x89 >= 1;
1 - x32 + x72 + x76 >= 1;
1 - x50 + x9 + x67 >= 1;
1 - x59 + 1 - x25 + 1 - x19 >= 1;
1 - x77 + 1 - x66 + x26 >= 1;
1 - x53 + x36 + x48 >= 1;
1 - x75 + x13 + x68 >= 1;
x11 + x72 + x97 >= 1;
1 - x84 + x60 + x63 >= 1;
1 - x6 + x8 + x87 >= 1;
1 - x64 + x9 + x94 >= 1;
1 - x83 + 1 - x41 + x98 >= 1;
x68 + x91 + x99 >= 1;
1 - x99 + 1 - x68 + x48 >= 1;
1 - x51 + x64 + x88 >= 1;
1 - x67 + x17 + x98 >= 1;
1 - x6 + x25 + x33 >= 1;
1 - x85 + 1 - x58 + x34 >= 1;
x15 + x47 + x61 >= 1;
1 - x5 + x15 + x76 >= 1;
1 - x73 + 1 - x48 + x85 >= 1;
x5 + x56 + x98 >= 1;
1 - x65 + 1 - x4 + x73 >= 1;
1 - x54 + 1 - x46 + x16 >= 1;
1 - x55 + x21 + x48 >= 1;
1 - x89 + x34 + x53 >= 1;
1 - x57 + x10 + x87 >= 1;
1 - x32 + x43 + x57 >= 1;
1 - x86 + x3 + x67 >= 1;
1 - x100 + x93 + x99 >= 1;
1 - x98 + 1 - x39 + x87 >= 1;
1 - x78 + 1 - x13 + 1 - x10 >= 1;
1 - x33 + x8 + x16 >= 1;
x3 + x34 + x59 >= 1;
1 - x82 + 1 - x36 + 1 - x23 >= 1;
1 - x83 + 1 - x56 + 1 - x15 >= 1;
1 - x64 + x36 + x90 >= 1;
1 - x49 + 1 - x38 + x66 >= 1;
1 - x47 + x43 + x87 >= 1;
1 - x38 + x32 + x64 >= 1;
1 - x43 + 1 - x20 + x22 >= 1;
1 - x78 + 1 - x36 + x72 >= 1;
1 - x88 + 1 - x21 + 1 - x8 >= 1;
x33 + x40 + x46 >= 1;
1 - x37 + x70 + x92 >= 1;
1 - x86 + 1 - x76 + x49 >= 1;
1 - x83 + 1 - x5 + x61 >= 1;
1 - x98 + 1 - x87 + 1 - x36 >= 1;
1 - x31 + x10 + x85 >= 1;
1 - x94 + 1 - x13 + x58 >= 1;
x38 + x41 + x78 >= 1;
1 - x74 + x39 + x85 >= 1;
1 - x11 + x23 + x48 >= 1;
1 - x87 + x70 + x80 >= 1;
1 - x39 + 1 - x21 + x68 >= 1;
1 - x20 + x7 + x94 >= 1;
1 - x71 + x92 + x93 >= 1;
1 - x71 + x17 + x67 >= 1;
1 - x66 + x53 + x91 >= 1;
1 - x69 + 1 - x49 + 1 - x1 >= 1;
1 - x79 + 1 - x52 + x58 >= 1;
x24 + x75 + x91 >= 1;
1 - x10 + x21 + x96 >= 1;
1 - x63 + x48 + x55 >= 1;
1 - x17 + x33 + x40 >= 1;
1 - x93 + x26 + x54 >= 1;
1 - x71 + 1 - x48 + x4 >= 1;
x29 + x84 + x100 >= 1;
1 - x99 + 1 - x1 + x69 >= 1;
1 - x69 + 1 - x47 + x17 >= 1;
1 - x73 + 1 - x54 + x48 >= 1;
1 - x90 + x9 + x45 >= 1;
1 - x50 + 1 - x45 + x92 >= 1;
1 - x81 + x11 + x58 >= 1;
1 - x79 + 1 - x35 + x95 >= 1;
1 - x37 + 1 - x17 + x31 >= 1;
1 - x47 + x4 + x99 >= 1;
x47 + x51 + x60 >= 1;
1 - x63 + 1 - x43 + x54 >= 1;
1 - x48 + 1 - x21 + x51 >= 1;
1 - x90 + 1 - x45 + x32 >= 1;
1 - x38 + x31 + x91 >= 1;
x7 + x81 + x83 >= 1;
1 - x34 + x78 + x82 >= 1;
1 - x32 + x69 + x82 >= 1;
1 - x35 + x30 + x31 >= 1;
x12 + x49 + x93 >= 1;
1 - x70 + 1 - x28 + x14 >= 1;
1 - x75 + 1 - x15 + x29 >= 1;
1 - x71 + 1 - x40 + x30 >= 1;
1 - x95 + 1 - x87 + 1 - x53 >= 1;
1 - x53 + 1 - x47 + x4 >= 1;
1 - x60 + x46 + x93 >= 1;
1 - x40 + 1 - x8 + x36 >= 1;
1 - x61 + 1 - x19 + 1 - x8 >= 1;
x25 + x35 + x73 >= 1;
1 - x85 + 1 - x20 + x10 >= 1;
1 - x85 + x8 + x45 >= 1;
1 - x70 + 1 - x65 + 1 - x12 >= 1;
1 - x87 + 1 - x56 + x57 >= 1;
1 - x100 + 1 - x25 + x53 >= 1;
1 - x69 + x41 + x42 >= 1;
1 - x79 + 1 - x51 + x10 >= 1;
1 - x4 + x57 + x62 >= 1;
1 - x91 + 1 - x56 + 1 - x28 >= 1;
1 - x38 + x17 + x93 >= 1;
1 - x65 + 1 - x54 + x97 >= 1;
1 - x41 + 1 - x37 + 1 - x11 >= 1;
1 - x89 + 1 - x54 + 1 - x49 >= 1;
x17 + x79 + x91 >= 1;
1 - x59 + 1 - x30 + x2 >= 1;
x64 + x70 + x96 >= 1;
x40 + x75 + x87 >= 1;
1 - x91 + 1 - x10 + x13 >= 1;
1 - x57 + 1 - x47 + x95 >= 1;
1 - x74 + 1 - x59 + x71 >= 1;
1 - x91 + 1 - x54 + x1 >= 1;
1 - x62 + x15 + x89 >= 1;
1 - x65 + x47 + x99 >= 1;
1 - x35 + x51 + x98 >= 1;
1 - x88 + x9 + x91 >= 1;
1 - x47 + 1 - x7 + x53 >= 1;
x1 + x47 + x89 >= 1;
1 - x93 + 1 - x72 + x94 >= 1;
1 - x84 + x27 + x93 >= 1;
1 - x39 + 1 - x28 + x66 >= 1;
1 - x42 + 1 - x21 + x31 >= 1;
1 - x54 + x27 + x94 >= 1;
1 - x92 + x28 + x76 >= 1;
1 - x9 + x16 + x93 >= 1;
1 - x49 + 1 - x39 + x60 >= 1;
1 - x83 + 1 - x63 + x90 >= 1;
1 - x98 + 1 - x97 + x88 >= 1;
1 - x54 + 1 - x50 + x11 >= 1;
1 - x88 + 1 - x86 + 1 - x70 >= 1;
1 - x95 + 1 - x19 + x33 >= 1;
1 - x72 + 1 - x4 + x63 >= 1;
1 - x63 + x13 + x37 >= 1;
1 - x85 + 1 - x66 + 1 - x11 >= 1;
1 - x37 + x40 + x43 >= 1;
1 - x66 + x1 + x93 >= 1;
1 - x100 + x48 + x51 >= 1;
1 - x87 + x75 + x81 >= 1;
1 - x94 + 1 - x23 + x35 >= 1;
1 - x98 + 1 - x30 + x74 >= 1;
1 - x61 + x48 + x89 >= 1;
x36 + x78 + x88 >= 1;
1 - x22 + x12 + x27 >= 1;
1 - x62 + x45 + x47 >= 1;
1 - x55 + 1 - x4 + x63 >= 1;
1 - x83 + x16 + x89 >= 1;
1 - x39 + 1 - x16 + x12 >= 1;
1 - x55 + x6 + x99 >= 1;
1 - x94 + 1 - x25 + x71 >= 1;
1 - x21 + x25 + x28 >= 1;
1 - x40 + 1 - x12 + x26 >= 1;
1 - x49 + x6 + x26 >= 1;
1 - x24 + x11 + x46 >= 1;
x9 + x36 + x48 >= 1;
1 - x54 + 1 - x26 + x37 >= 1;
1 - x94 + 1 - x45 + x89 >= 1;
1 - x74 + x7 + x39 >= 1;
1 - x48 + 1 - x21 + x10 >= 1;
1 - x81 + 1 - x65 + x99 >= 1;
1 - x44 + 1 - x12 + 1 - x3 >= 1;
1 - x73 + x22 + x34 >= 1;
1 - x60 + 1 - x43 + x48 >= 1;
1 - x91 + 1 - x85 + x34 >= 1;
1 - x52 + x28 + x70 >= 1;
1 - x3 + x46 + x95 >= 1;
1 - x85 + 1 - x35 + x1 >= 1;
1 - x10 + x4 + x48 >= 1;
1 - x68 + x9 + x39 >= 1;
1 - x42 + x31 + x83 >= 1;
1 - x92 + x30 + x34 >= 1;
1 - x73 + 1 - x23 + x66 >= 1;
1 - x90 + x26 + x78 >= 1;
1 - x58 + x60 + x98 >= 1;
x9 + x92 + x100 >= 1;
1 - x26 + x33 + x63 >= 1;
1 - x100 + 1 - x87 + x24 >= 1;
1 - x93 + 1 - x74 + 1 - x51 >= 1;
1 - x49 + 1 - x35 + 1 - x7 >= 1;
1 - x58 + x62 + x83 >= 1;
1 - x58 + 1 - x51 + 1 - x30 >= 1;
1 - x84 + 1 - x77 + x72 >= 1;
1 - x98 + 1 - x6 + x73 >= 1;
1 - x45 + 1 - x16 + x72 >= 1;
1 - x29 + 1 - x18 + x40 >= 1;
1 - x73 + 1 - x11 + x64 >= 1;
1 - x29 + x67 + x77 >= 1;
1 - x23 + x38 + x49 >= 1;
1 - x18 + x35 + x90 >= 1;
1 - x52 + 1 - x36 + x59 >= 1;
x17 + x68 + x99 >= 1;
1 - x21 + x54 + x80 >= 1;
1 - x54 + 1 - x31 + x44 >= 1;
x56 + x86 + x88 >= 1;
1 - x32 + x81 + x88 >= 1;
1 - x61 + x20 + x79 >= 1;
x9 + x12 + x72 >= 1;
1 - x30 + x37 + x78 >= 1;
1 - x81 + x71 + x90 >= 1;
1 - x98 + x42 + x96 >= 1;
1 - x5 + 1 - x1 + x6 >= 1;
1 - x58 + x23 + x97 >= 1;
1 - x77 + 1 - x3 + x40 >= 1;
1 - x95 + x33 + x41 >= 1;
1 - x81 + 1 - x7 + x85 >= 1;
1 - x14 + x16 + x97 >= 1;
1 - x4 + x80 + x88 >= 1;
1 - x12 + x3 + x51 >= 1;
1 - x25 + x13 + x85 >= 1;
x28 + x60 + x70 >= 1;
1 - x62 + 1 - x54 + x15 >= 1;
1 - x81 + 1 - x16 + x33 >= 1;
1 - x55 + x15 + x83 >= 1;
1 - x69 + 1 - x39 + x9 >= 1;
1 - x72 + 1 - x27 + x86 >= 1;
1 - x84 + x18 + x34 >= 1;
1 - x92 + 1 - x68 + x83 >= 1;
1 - x55 + 1 - x47 + x58 >= 1;
1 - x5 + x63 + x87 >= 1;
1 - x85 + 1 - x30 + x99 >= 1;
1 - x30 + 1 - x11 + x2 >= 1;
1 - x75 + 1 - x2 + x44 >= 1;
1 - x37 + 1 - x31 + x4 >= 1;
1 - x95 + 1 - x69 + x91 >= 1;
1 - x97 + 1 - x89 + 1 - x69 >= 1;
x75 + x83 + x94 >= 1;
1 - x20 + 1 - x10 + x66 >= 1;
1 - x56 + x23 + x25 >= 1;
1 - x88 + 1 - x10 + x82 >= 1;
1 - x82 + 1 - x6 + x74 >= 1;
1 - x66 + 1 - x11 + x44 >= 1;
1 - x77 + x28 + x36 >= 1;
1 - x84 + 1 - x31 + 1 - x1 >= 1;
1 - x71 + x48 + x78 >= 1;
1 - x21 + 1 - x8 + x57 >= 1;
x22 + x59 + x69 >= 1;
1 - x1 + x64 + x68 >= 1;
1 - x36 + 1 - x9 + x46 >= 1;
x17 + x20 + x61 >= 1;
x50 + x56 + x98 >= 1;
1 - x87 + 1 - x49 + x7 >= 1;
1 - x80 + 1 - x57 + x99 >= 1;
1 - x96 + 1 - x42 + 1 - x16 >= 1;
1 - x47 + x1 + x28 >= 1;
x82 + x85 + x92 >= 1;
1 - x100 + 1 - x86 + 1 - x68 >= 1;
1 - x13 + x27 + x34 >= 1;
1 - x70 + x31 + x55 >= 1;
1 - x3 + x30 + x69 >= 1;
1 - x75 + 1 - x72 + x98 >= 1;
x21 + x82 + x87 >= 1;
1 - x74 + 1 - x39 + x5 >= 1;
1 - x91 + 1 - x42 + x94 >= 1;
1 - x69 + 1 - x52 + x16 >= 1;
1 - x65 + 1 - x8 + x71 >= 1;
1 - x70 + 1 - x15 + x21 >= 1;
1 - x98 + 1 - x69 + x71 >= 1;
1 - x58 + 1 - x27 + x77 >= 1;
1 - x53 + x35 + x82 >= 1;
1 - x79 + 1 - x1 + x4 >= 1;
1 - x65 + 1 - x31 + x53 >= 1;
1 - x85 + 1 - x18 + x88 >= 1;
1 - x14 + 1 - x13 + x48 >= 1;
0 <= x1  <= 1;
0 <= x2  <= 1;
0 <= x3  <= 1;
0 <= x4  <= 1;
0 <= x5  <= 1;
0 <= x6  <= 1;
0 <= x7  <= 1;
0 <= x8  <= 1;
0 <= x9  <= 1;
0 <= x10  <= 1;
0 <= x11  <= 1;
0 <= x12  <= 1;
0 <= x13  <= 1;
0 <= x14  <= 1;
0 <= x15  <= 1;
0 <= x16  <= 1;
0 <= x17  <= 1;
0 <= x18  <= 1;
0 <= x19  <= 1;
0 <= x20  <= 1;
0 <= x21  <= 1;
0 <= x22  <= 1;
0 <= x23  <= 1;
0 <= x24  <= 1;
0 <= x25  <= 1;
0 <= x26  <= 1;
0 <= x27  <= 1;
0 <= x28  <= 1;
0 <= x29  <= 1;
0 <= x30  <= 1;
0 <= x31  <= 1;
0 <= x32  <= 1;
0 <= x33  <= 1;
0 <= x34  <= 1;
0 <= x35  <= 1;
0 <= x36  <= 1;
0 <= x37  <= 1;
0 <= x38  <= 1;
0 <= x39  <= 1;
0 <= x40  <= 1;
0 <= x41  <= 1;
0 <= x42  <= 1;
0 <= x43  <= 1;
0 <= x44  <= 1;
0 <= x45  <= 1;
0 <= x46  <= 1;
0 <= x47  <= 1;
0 <= x48  <= 1;
0 <= x49  <= 1;
0 <= x50  <= 1;
0 <= x51  <= 1;
0 <= x52  <= 1;
0 <= x53  <= 1;
0 <= x54  <= 1;
0 <= x55  <= 1;
0 <= x56  <= 1;
0 <= x57  <= 1;
0 <= x58  <= 1;
0 <= x59  <= 1;
0 <= x60  <= 1;
0 <= x61  <= 1;
0 <= x62  <= 1;
0 <= x63  <= 1;
0 <= x64  <= 1;
0 <= x65  <= 1;
0 <= x66  <= 1;
0 <= x67  <= 1;
0 <= x68  <= 1;
0 <= x69  <= 1;
0 <= x70  <= 1;
0 <= x71  <= 1;
0 <= x72  <= 1;
0 <= x73  <= 1;
0 <= x74  <= 1;
0 <= x75  <= 1;
0 <= x76  <= 1;
0 <= x77  <= 1;
0 <= x78  <= 1;
0 <= x79  <= 1;
0 <= x80  <= 1;
0 <= x81  <= 1;
0 <= x82  <= 1;
0 <= x83  <= 1;
0 <= x84  <= 1;
0 <= x85  <= 1;
0 <= x86  <= 1;
0 <= x87  <= 1;
0 <= x88  <= 1;
0 <= x89  <= 1;
0 <= x90  <= 1;
0 <= x91  <= 1;
0 <= x92  <= 1;
0 <= x93  <= 1;
0 <= x94  <= 1;
0 <= x95  <= 1;
0 <= x96  <= 1;
0 <= x97  <= 1;
0 <= x98  <= 1;
0 <= x99  <= 1;
0 <= x100  <= 1;
